p edges 64 388
e 1 33
e 1 34
e 1 3
e 1 38
e 1 42
e 1 43
e 1 35
e 1 17
e 1 18
e 1 19
e 1 52
e 1 22
e 1 59
e 1 29
e 2 33
e 2 35
e 2 36
e 2 5
e 2 23
e 2 57
e 2 11
e 2 60
e 2 47
e 2 64
e 3 35
e 3 36
e 3 5
e 3 39
e 3 41
e 3 46
e 3 47
e 3 14
e 3 17
e 3 19
e 3 23
e 4 17
e 4 18
e 4 21
e 4 33
e 4 29
e 4 43
e 4 13
e 4 61
e 5 17
e 5 38
e 5 39
e 5 57
e 5 10
e 5 11
e 5 44
e 5 27
e 6 19
e 6 60
e 6 54
e 6 55
e 6 59
e 6 12
e 6 45
e 6 63
e 7 35
e 7 36
e 7 38
e 7 40
e 7 9
e 7 11
e 7 12
e 7 44
e 7 47
e 7 16
e 7 49
e 7 18
e 7 52
e 7 23
e 7 57
e 7 27
e 7 28
e 8 34
e 8 37
e 8 39
e 8 9
e 8 10
e 8 13
e 8 19
e 8 53
e 8 23
e 8 24
e 8 27
e 8 61
e 8 63
e 9 50
e 9 51
e 9 21
e 9 38
e 9 54
e 9 57
e 9 39
e 9 30
e 9 46
e 10 35
e 10 13
e 10 45
e 10 19
e 10 18
e 10 51
e 10 20
e 10 22
e 10 55
e 10 63
e 10 32
e 11 19
e 11 36
e 11 47
e 11 58
e 11 45
e 11 46
e 11 15
e 11 16
e 12 34
e 12 36
e 12 41
e 12 15
e 12 51
e 12 52
e 12 21
e 12 22
e 12 56
e 12 62
e 13 33
e 13 51
e 13 39
e 13 23
e 13 26
e 13 59
e 13 61
e 13 32
e 14 36
e 14 37
e 14 39
e 14 41
e 14 43
e 14 49
e 14 52
e 14 21
e 14 55
e 14 24
e 14 59
e 14 63
e 15 17
e 15 50
e 15 21
e 15 55
e 15 41
e 15 64
e 16 17
e 16 51
e 16 52
e 16 37
e 16 22
e 16 40
e 16 41
e 16 28
e 16 64
e 17 43
e 17 35
e 17 51
e 17 21
e 17 55
e 17 26
e 17 27
e 18 33
e 18 51
e 18 41
e 18 30
e 19 33
e 19 45
e 19 48
e 19 49
e 19 52
e 19 55
e 19 25
e 19 61
e 19 31
e 19 38
e 20 49
e 20 36
e 20 37
e 20 22
e 20 55
e 20 29
e 20 47
e 21 50
e 21 44
e 21 36
e 21 47
e 21 55
e 21 24
e 21 56
e 21 28
e 21 29
e 21 63
e 22 53
e 22 54
e 22 40
e 22 57
e 22 62
e 22 63
e 23 60
e 23 38
e 23 39
e 23 45
e 23 44
e 23 47
e 23 61
e 23 49
e 23 55
e 23 56
e 23 25
e 23 26
e 23 28
e 23 29
e 24 50
e 24 52
e 24 55
e 24 39
e 24 47
e 24 32
e 25 51
e 25 39
e 25 40
e 25 61
e 25 64
e 25 45
e 25 35
e 25 31
e 25 54
e 26 34
e 26 36
e 26 54
e 26 43
e 26 28
e 27 33
e 27 39
e 27 41
e 27 61
e 27 43
e 27 44
e 27 58
e 27 29
e 27 63
e 28 33
e 28 52
e 28 43
e 28 30
e 28 31
e 29 47
e 29 45
e 29 31
e 30 38
e 30 50
e 30 58
e 30 59
e 30 61
e 30 32
e 31 49
e 31 34
e 31 44
e 31 45
e 31 59
e 31 46
e 31 63
e 32 33
e 32 34
e 32 35
e 32 36
e 32 43
e 32 47
e 32 49
e 32 51
e 32 59
e 32 63
e 33 38
e 33 52
e 33 50
e 33 41
e 33 45
e 33 44
e 33 46
e 33 62
e 33 49
e 33 36
e 33 51
e 33 59
e 34 38
e 34 39
e 34 42
e 34 48
e 34 50
e 34 54
e 34 56
e 34 63
e 35 36
e 35 38
e 35 49
e 35 41
e 35 45
e 35 42
e 35 63
e 36 40
e 36 41
e 36 44
e 36 45
e 36 46
e 36 49
e 36 52
e 36 53
e 36 58
e 36 61
e 36 64
e 37 57
e 38 55
e 38 44
e 38 52
e 38 63
e 39 40
e 39 47
e 39 49
e 39 58
e 39 61
e 40 57
e 40 56
e 40 61
e 41 50
e 41 43
e 41 49
e 41 60
e 42 51
e 42 57
e 42 45
e 42 46
e 42 62
e 43 49
e 43 64
e 43 47
e 43 51
e 44 51
e 44 58
e 44 59
e 44 64
e 45 50
e 45 53
e 45 63
e 45 58
e 46 53
e 46 47
e 46 60
e 46 64
e 47 61
e 47 54
e 47 59
e 47 55
e 47 63
e 48 52
e 49 51
e 49 64
e 49 61
e 50 57
e 50 60
e 50 61
e 51 54
e 51 59
e 51 61
e 52 60
e 52 53
e 52 54
e 55 56
e 55 61
e 56 57
e 56 58
e 57 58
e 57 60
e 57 62
e 57 63
e 58 60
e 58 61
e 60 64
e 61 63
e 61 64
e 62 63
